NAME          HOTMIX4
ROWS
 G  N
 G  P
 G  K
 G  SRN
 G  POLYP
 G  K0-0-68
 G  KKOH
 G  S
 G  ZN
 G  WATR
 G  DEN
 E  HCAP
 E  HSOL
 E  HREA
 G  MINT
 G  MAXT
 G  32F
 G  32FK
 G  77F
 G  77FK
 G  MINA
 G  MAXA
 G  MINK
 G  MAXK
 E  54
 E  WT
 N  COST
 N  PRICE
COLUMNS
*234567890123456789012345678901234567890123456789012345678901
    HOTWATER  WATR          1.000000   DEN           0.120048   
    HOTWATER  HCAP          1.000000   HREA          1.260000   
    HOTWATER  32F          -1.000000   32FK         -1.000000   
    HOTWATER  77F          -1.000000   77FK         -1.000000   
    HOTWATER  WT            1.000000   COST          0.250000   
    HOTWATER  PRICE         0.312500   SCALE      2000.000000   
    EVAP      WATR         -1.000000   DEN          -0.120048   
    EVAP      HCAP         -1.000000   HSOL         -0.400000   
    EVAP      32F           1.000000   32FK          1.000000   
    EVAP      77F           1.000000   77FK          1.000000   
    EVAP      WT           -1.000000   COST         25.000000   
    EVAP      PRICE        25.000000   SCALE      2000.000000   
    WATER     WATR          1.000000   DEN           0.119746   
    WATER     HCAP          1.000000   HSOL          0.400000   
    WATER     32F          -1.000000   32FK         -1.000000   
    WATER     77F          -1.000000   77FK         -1.000000   
    WATER     WT            1.000000   COST          0.100000   
    WATER     PRICE         0.000000   SCALE      2000.000000   
    I005400   P             0.540000   WATR          0.250000   
    I005400   DEN           0.065600   HCAP          0.860000   
    I005400   32F           0.861042   32FK          0.861042   
    I005400   77F           0.829268   77FK          0.829268   
    I005400   54           -1.000000   WT            1.000000   
    I005400   COST        270.000000   PRICE       270.000000   
    I005400   SCALE      2000.000000   
    I005400W  P             0.540000   WATR          0.376100   
    I005400W  DEN           0.065600   HCAP          0.860000   
    I005400W  32F           0.861042   32FK          0.861042   
    I005400W  77F           0.829268   77FK          0.829268   
    I005400W  54           -1.000000   WT            1.000000   
    I005400W  COST        400.000000   PRICE       400.000000   
    I005400W  SCALE      2000.000000   
    I005400A  HREA          2.662000   MINA          0.193200   
    I005400A  MAXA          0.219000   54            1.000000   
    I005400A  COST          0.000000   PRICE         0.000000   
    I005400A  SCALE      2000.000000   
    I005400K  HREA          5.134000   MINK          0.426900   
    I005400K  MAXK          0.853800   54            1.000000   
    I005400K  COST          0.000000   PRICE         0.000000   
    I005400K  SCALE      2000.000000   
    I000037   K             0.370000   KKOH          0.370000   
    I000037   WATR          0.559000   DEN           0.085749   
    I000037   HCAP          0.600000   HREA          2.463600   
    I000037   32F           0.300000   32FK          0.300000   
    I000037   77F           0.200000   77FK          0.200000   
    I000037   MINK         -0.441000   MAXK         -0.441000   
    I000037   WT            1.000000   COST        245.000000   
    I000037   PRICE       245.000000   SCALE      2000.000000   
    I93SACID  S             0.320000   WATR          0.070000   
    I93SACID  DEN           0.066693   HCAP          0.360000   
    I93SACID  HREA          8.500000   32F           1.933750   
    I93SACID  32FK         16.547200   77F           1.801200   
    I93SACID  77FK         13.761900   MINA          0.324000   
    I93SACID  MAXA          0.324000   WT            1.000000   
    I93SACID  COST         80.000000   PRICE       100.000000   
    I93SACID  SCALE      2000.000000   
    INSUR28   N             0.280000   K             0.004000   
    INSUR28   SRN           0.201600   WATR          0.332000   
    INSUR28   DEN           0.093061   HCAP          0.500000   
    INSUR28   32F          -0.045714   32FK         -0.045714   
    INSUR28   77F          -0.097297   77FK         -0.097297   
    INSUR28   WT            1.000000   COST        600.000000   
    INSUR28   PRICE       600.000000   SCALE      2000.000000   
    I004156   P             0.419000   K             0.563000   
    I004156   DEN           0.051523   HCAP          0.191000   
    I004156   32F           4.000000   32FK          4.000000   
    I004156   77F           1.500000   77FK          1.500000   
    I004156   WT            1.000000   COST       1500.000000   
    I004156   PRICE      1500.000000   SCALE      2000.000000   
    I820000   N             0.822000   DEN           0.176023   
    I820000   HCAP          1.150000   HREA         27.600000   
    I820000   MINA         -1.000000   MAXA         -1.000000   
    I820000   WT            1.000000   COST        175.000000   
    I820000   PRICE       234.000000   SCALE      2000.000000   
    I230000   N             0.230000   WATR          0.500000   
    I230000   DEN           0.105305   HCAP          0.660000   
    I230000   32F           0.210654   32FK          0.210654   
    I230000   77F          -0.080882   77FK         -0.080882   
    I230000   WT            1.000000   COST        125.000000   
    I230000   PRICE       125.000000   SCALE      2000.000000   
    I240000   N             0.245000   WATR          0.702000   
    I240000   DEN           0.133387   HCAP          0.990000   
    I240000   HREA          6.500000   32F          -0.757000   
    I240000   32FK         -0.757000   77F          -0.757000   
    I240000   77FK         -0.757000   MINA         -0.298000   
    I240000   MAXA         -0.298000   WT            1.000000   
    I240000   COST        130.000000   PRICE        85.000000   
    I240000   SCALE      2000.000000   
    I460000   N             0.460000   DEN           0.156480   
    I460000   HCAP          0.320000   HSOL          2.160000   
    I460000   32F           1.421310   32FK          1.421310   
    I460000   77F           0.838235   77FK          0.838235   
    I460000   WT            1.000000   COST        160.000000   
    I460000   PRICE       200.000000   SCALE      2000.000000   
    I113700   N             0.110000   P             0.370000   
    I113700   POLYP         0.240000   WATR          0.400000   
    I113700   DEN           0.085749   HCAP          0.500000   
    I113700   32F          -0.250000   32FK         -0.250000   
    I113700   77F          -0.299883   77FK         -0.299883   
    I113700   WT            1.000000   COST        245.000000   
    I113700   PRICE       350.000000   SCALE      2000.000000   
    I000062   K             0.624000   DEN           0.060456   
    I000062   HCAP          0.162000   HSOL          2.120000   
    I000062   32F           3.424780   32FK          3.424780   
    I000062   77F           2.690040   77FK          2.690040   
    I000062   WT            1.000000   COST         90.000000   
    I000062   PRICE       112.500000   SCALE      2000.000000   
    I120000   N             0.120000   S             0.260000   
    I120000   WATR          0.400000   DEN           0.089710   
    I120000   HCAP          0.440000   32F           0.005025   
    I120000   32FK          0.005025   77F          -0.104478   
    I120000   77FK         -0.104478   WT            1.000000   
    I120000   COST        135.000000   PRICE       168.750000   
    I120000   SCALE      2000.000000   
    I100000   N             0.100000   S             0.050000   
    I100000   ZN            0.100000   WATR          0.630000   
    I100000   DEN           0.094690   HCAP          0.740000   
    I100000   77F          -0.119048   77FK         -0.119048   
    I100000   WT            1.000000   COST        190.000000   
    I100000   PRICE       237.500000   SCALE      2000.000000   
    I000025   K             0.250000   S             0.170000   
    I000025   WATR          0.510000   DEN           0.083500   
    I000025   HCAP          0.600000   32F          -0.014085   
    I000025   32FK         -0.014085   77F          -0.195402   
    I000025   77FK         -0.195402   WT            1.000000   
    I000025   COST        500.000000   PRICE       400.000000   
    I000025   SCALE      2000.000000   
    I000037   K             0.377000   WATR          0.450000   
    I000037   DEN           0.054567   HCAP          0.350000   
    I000037   HREA          1.970000   32F           0.072125   
    I000037   32FK          0.072125   77F           0.016636   
    I000037   77FK          0.016636   WT            1.000000   
    I000037   COST        310.000000   PRICE       310.000000   
    I000037   SCALE      2000.000000   
    I000068   K             0.680000   K0-0-68       0.680000   
    I000068   DEN           0.054567   HCAP          0.350000   
    I000068   HREA          4.600000   32F           0.072125   
    I000068   32FK          0.072125   77F           0.016636   
    I000068   77FK          0.016636   MINK         -0.812000   
    I000068   MAXK         -0.812000   WT            1.000000   
    I000068   COST        560.000000   PRICE       560.000000   
    I000068   SCALE      2000.000000   
    HEATCAP   HCAP         -1.000000   MINT          0.120000   
    HEATCAP   MAXT          3.340000   COST          0.000000   
    HEATCAP   PRICE         0.000000   SCALE         1.000000   
    HEATSOL   HSOL         -2.000000   MINT         -1.000000   
    HEATSOL   MAXT          1.000000   COST          0.000000   
    HEATSOL   PRICE         0.000000   SCALE         1.000000   
    HEATREA   HREA         -2.000000   MINT          1.000000   
    HEATREA   MAXT         -1.000000   COST          0.000000   
    HEATREA   PRICE         0.000000   SCALE         1.000000   
    PRODUCT   WT           -1.000000   COST          0.010000   
    PRODUCT   PRICE         0.000000   SCALE         1.000000   
*234567890123456789012345678901234567890123456789012345678901
RHS
RANGES
ENDATA
